p tw 102 109
1 2
2 15
3 6
4 5
6 7
7 4
8 9
9 10
10 11
11 12
11 13
12 13
13 14
14 16
15 26
16 17
17 18
17 71
18 19
19 20
19 29
20 21
21 22
22 23
23 24
24 25
25 27
26 37
27 28
27 29
28 4
29 30
30 31
31 32
32 33
33 34
34 35
35 36
36 38
37 48
38 39
39 40
40 41
40 58
41 42
42 43
43 44
44 45
45 46
46 47
47 49
48 59
49 50
50 51
51 52
52 53
53 54
54 55
55 56
56 57
57 4
58 60
59 70
60 61
61 62
62 63
63 64
64 65
65 66
66 67
67 68
68 69
69 4
70 81
71 72
72 73
73 74
73 83
74 75
75 76
76 77
77 78
78 79
79 80
80 82
81 92
81 8
82 4
83 84
84 85
85 86
85 98
86 87
87 88
88 89
89 90
90 91
91 93
92 3
93 94
94 95
95 96
96 97
97 4
98 99
99 100
100 101
101 102
102 4
